
        $ From http://www.csplib.org/Problems/prob009/data/helmut.pdf
        $ Problem number 74
        $ Sequence length : 25
        language ESSENCE' 1.0
        letting sizemaster be 293
        letting sizes be sequence(5,6,11,17,18,20,21,24,27,28,32,34,41,42,50,54,55,66,68,78,85,88,95,110,130)
        